32	0

0	1	2
9	1	3
4	2	4	5
9	1	7
1	1	6
6	1	7
5	1	8
5	1	9
8	1	10
2	1	11
7	1	12
9	1	13
9	2	14	16
3	1	15
1	1	17
10	1	19
2	1	18
3	1	19
1	2	20	21
1	1	22
8	1	22
3	1	23
5	1	24
10	2	25	26
5	2	27	28
6	1	28
10	2	30	31
3	1	29
6	2	30	31
7	1	32
3	1	32
0	0
